p edge 90 1246
e 1 4
e 1 7
e 1 8
e 1 12
e 1 14
e 1 21
e 1 22
e 1 24
e 1 28
e 1 29
e 1 31
e 1 32
e 1 35
e 1 42
e 1 46
e 1 48
e 1 50
e 1 51
e 1 53
e 1 55
e 1 59
e 1 64
e 1 65
e 1 66
e 1 67
e 1 71
e 1 73
e 1 78
e 1 79
e 1 81
e 1 82
e 1 84
e 1 87
e 1 90
e 2 3
e 2 4
e 2 7
e 2 10
e 2 13
e 2 16
e 2 17
e 2 20
e 2 21
e 2 23
e 2 32
e 2 33
e 2 34
e 2 36
e 2 37
e 2 47
e 2 48
e 2 50
e 2 54
e 2 55
e 2 58
e 2 64
e 2 65
e 2 70
e 2 71
e 2 72
e 2 74
e 2 75
e 2 76
e 2 83
e 2 89
e 3 4
e 3 5
e 3 7
e 3 9
e 3 14
e 3 23
e 3 36
e 3 40
e 3 41
e 3 42
e 3 44
e 3 46
e 3 52
e 3 56
e 3 57
e 3 60
e 3 63
e 3 69
e 3 76
e 3 78
e 3 80
e 3 82
e 3 85
e 3 86
e 3 87
e 3 90
e 4 5
e 4 7
e 4 11
e 4 19
e 4 21
e 4 25
e 4 27
e 4 28
e 4 29
e 4 30
e 4 33
e 4 36
e 4 37
e 4 49
e 4 57
e 4 61
e 4 68
e 4 71
e 4 76
e 4 83
e 4 84
e 5 6
e 5 9
e 5 11
e 5 12
e 5 15
e 5 16
e 5 17
e 5 20
e 5 25
e 5 32
e 5 33
e 5 34
e 5 36
e 5 46
e 5 48
e 5 49
e 5 52
e 5 53
e 5 55
e 5 62
e 5 64
e 5 66
e 5 70
e 5 71
e 5 74
e 5 75
e 5 79
e 5 80
e 5 81
e 5 83
e 5 84
e 5 85
e 5 87
e 5 88
e 5 89
e 5 90
e 6 9
e 6 11
e 6 12
e 6 14
e 6 18
e 6 19
e 6 26
e 6 30
e 6 37
e 6 38
e 6 41
e 6 42
e 6 44
e 6 55
e 6 58
e 6 62
e 6 64
e 6 65
e 6 68
e 6 71
e 6 72
e 6 75
e 6 77
e 6 78
e 6 80
e 6 84
e 6 86
e 6 89
e 6 90
e 7 9
e 7 11
e 7 13
e 7 15
e 7 16
e 7 17
e 7 18
e 7 22
e 7 30
e 7 37
e 7 39
e 7 41
e 7 44
e 7 45
e 7 46
e 7 47
e 7 48
e 7 49
e 7 55
e 7 56
e 7 60
e 7 66
e 7 68
e 7 70
e 7 74
e 7 83
e 7 87
e 7 88
e 8 12
e 8 20
e 8 21
e 8 22
e 8 26
e 8 28
e 8 30
e 8 32
e 8 35
e 8 36
e 8 38
e 8 39
e 8 42
e 8 43
e 8 44
e 8 48
e 8 51
e 8 56
e 8 60
e 8 65
e 8 74
e 8 75
e 8 81
e 8 82
e 8 84
e 8 86
e 9 11
e 9 16
e 9 17
e 9 18
e 9 21
e 9 26
e 9 29
e 9 32
e 9 34
e 9 37
e 9 39
e 9 46
e 9 49
e 9 53
e 9 55
e 9 60
e 9 68
e 9 74
e 9 76
e 9 77
e 9 78
e 9 82
e 9 88
e 10 20
e 10 21
e 10 26
e 10 27
e 10 33
e 10 38
e 10 40
e 10 41
e 10 43
e 10 47
e 10 48
e 10 57
e 10 58
e 10 59
e 10 61
e 10 62
e 10 66
e 10 71
e 10 72
e 10 78
e 10 83
e 10 84
e 10 85
e 10 87
e 10 89
e 11 15
e 11 16
e 11 19
e 11 20
e 11 22
e 11 25
e 11 28
e 11 36
e 11 39
e 11 40
e 11 46
e 11 48
e 11 49
e 11 53
e 11 60
e 11 68
e 11 69
e 11 70
e 11 71
e 11 74
e 11 75
e 11 76
e 11 80
e 11 81
e 11 83
e 11 87
e 12 13
e 12 16
e 12 30
e 12 32
e 12 36
e 12 38
e 12 39
e 12 41
e 12 46
e 12 48
e 12 56
e 12 57
e 12 59
e 12 61
e 12 64
e 12 66
e 12 68
e 12 72
e 12 81
e 12 85
e 12 88
e 12 89
e 13 16
e 13 19
e 13 20
e 13 22
e 13 24
e 13 29
e 13 35
e 13 37
e 13 45
e 13 51
e 13 55
e 13 56
e 13 57
e 13 59
e 13 63
e 13 68
e 13 69
e 13 71
e 13 72
e 13 73
e 13 75
e 13 78
e 13 82
e 13 84
e 13 85
e 13 90
e 14 16
e 14 22
e 14 24
e 14 25
e 14 28
e 14 29
e 14 33
e 14 35
e 14 36
e 14 41
e 14 45
e 14 46
e 14 51
e 14 61
e 14 62
e 14 72
e 14 74
e 14 77
e 14 79
e 14 83
e 14 84
e 14 90
e 15 16
e 15 28
e 15 29
e 15 31
e 15 33
e 15 34
e 15 39
e 15 41
e 15 42
e 15 45
e 15 47
e 15 51
e 15 52
e 15 54
e 15 56
e 15 58
e 15 62
e 15 68
e 15 71
e 15 74
e 15 76
e 15 80
e 15 86
e 16 17
e 16 19
e 16 20
e 16 21
e 16 22
e 16 23
e 16 28
e 16 31
e 16 32
e 16 33
e 16 36
e 16 39
e 16 51
e 16 56
e 16 58
e 16 59
e 16 67
e 16 68
e 16 73
e 16 79
e 16 81
e 16 84
e 16 87
e 16 88
e 16 89
e 17 24
e 17 25
e 17 26
e 17 32
e 17 35
e 17 37
e 17 44
e 17 46
e 17 49
e 17 52
e 17 54
e 17 59
e 17 61
e 17 63
e 17 65
e 17 68
e 17 72
e 17 74
e 17 76
e 17 77
e 17 81
e 17 83
e 17 85
e 18 19
e 18 20
e 18 21
e 18 22
e 18 23
e 18 27
e 18 31
e 18 33
e 18 38
e 18 39
e 18 41
e 18 43
e 18 44
e 18 47
e 18 49
e 18 51
e 18 52
e 18 56
e 18 57
e 18 59
e 18 62
e 18 63
e 18 65
e 18 68
e 18 71
e 18 76
e 18 79
e 18 80
e 18 84
e 18 86
e 18 90
e 19 26
e 19 28
e 19 35
e 19 38
e 19 39
e 19 41
e 19 45
e 19 48
e 19 51
e 19 52
e 19 58
e 19 67
e 19 69
e 19 74
e 19 75
e 19 77
e 19 81
e 19 86
e 19 88
e 19 90
e 20 21
e 20 25
e 20 26
e 20 27
e 20 28
e 20 29
e 20 33
e 20 41
e 20 43
e 20 46
e 20 47
e 20 49
e 20 55
e 20 59
e 20 61
e 20 63
e 20 79
e 20 80
e 20 87
e 20 88
e 21 23
e 21 26
e 21 38
e 21 45
e 21 47
e 21 48
e 21 52
e 21 54
e 21 56
e 21 57
e 21 58
e 21 60
e 21 62
e 21 64
e 21 65
e 21 68
e 21 77
e 21 81
e 21 85
e 21 90
e 22 33
e 22 34
e 22 38
e 22 44
e 22 48
e 22 49
e 22 54
e 22 55
e 22 56
e 22 57
e 22 67
e 22 68
e 22 69
e 22 75
e 22 77
e 22 81
e 22 82
e 22 84
e 22 86
e 22 89
e 22 90
e 23 25
e 23 28
e 23 32
e 23 36
e 23 37
e 23 39
e 23 41
e 23 42
e 23 43
e 23 44
e 23 45
e 23 50
e 23 58
e 23 64
e 23 67
e 23 68
e 23 73
e 23 77
e 23 81
e 23 82
e 23 87
e 23 89
e 24 30
e 24 32
e 24 34
e 24 35
e 24 38
e 24 40
e 24 43
e 24 51
e 24 53
e 24 55
e 24 58
e 24 59
e 24 61
e 24 64
e 24 66
e 24 71
e 24 77
e 24 82
e 24 83
e 24 85
e 24 86
e 24 89
e 25 27
e 25 29
e 25 30
e 25 31
e 25 33
e 25 35
e 25 38
e 25 39
e 25 42
e 25 49
e 25 50
e 25 54
e 25 57
e 25 61
e 25 64
e 25 65
e 25 68
e 25 71
e 25 74
e 25 75
e 25 84
e 25 88
e 26 27
e 26 35
e 26 36
e 26 38
e 26 41
e 26 42
e 26 44
e 26 46
e 26 50
e 26 52
e 26 53
e 26 56
e 26 58
e 26 64
e 26 77
e 26 78
e 26 79
e 26 83
e 26 88
e 26 89
e 27 35
e 27 47
e 27 50
e 27 51
e 27 52
e 27 54
e 27 55
e 27 56
e 27 57
e 27 59
e 27 62
e 27 68
e 27 75
e 27 76
e 27 82
e 27 86
e 27 88
e 27 90
e 28 29
e 28 32
e 28 34
e 28 36
e 28 41
e 28 42
e 28 43
e 28 48
e 28 49
e 28 50
e 28 52
e 28 57
e 28 58
e 28 59
e 28 62
e 28 67
e 28 69
e 28 71
e 28 75
e 28 85
e 28 88
e 28 89
e 29 34
e 29 38
e 29 39
e 29 45
e 29 52
e 29 53
e 29 56
e 29 60
e 29 65
e 29 71
e 29 74
e 29 76
e 29 77
e 29 84
e 29 87
e 30 36
e 30 40
e 30 43
e 30 44
e 30 50
e 30 51
e 30 56
e 30 58
e 30 60
e 30 66
e 30 70
e 30 75
e 30 76
e 30 77
e 30 80
e 30 85
e 30 86
e 30 87
e 31 34
e 31 35
e 31 37
e 31 41
e 31 43
e 31 51
e 31 53
e 31 55
e 31 56
e 31 62
e 31 63
e 31 64
e 31 71
e 31 75
e 31 77
e 31 82
e 31 83
e 31 84
e 31 87
e 31 88
e 31 89
e 31 90
e 32 37
e 32 39
e 32 42
e 32 46
e 32 48
e 32 49
e 32 51
e 32 52
e 32 54
e 32 55
e 32 56
e 32 57
e 32 58
e 32 61
e 32 68
e 32 69
e 32 72
e 32 77
e 32 86
e 32 87
e 33 35
e 33 38
e 33 43
e 33 45
e 33 46
e 33 53
e 33 55
e 33 56
e 33 60
e 33 63
e 33 64
e 33 65
e 33 76
e 33 81
e 33 82
e 33 83
e 33 84
e 33 87
e 33 90
e 34 51
e 34 52
e 34 56
e 34 58
e 34 59
e 34 60
e 34 65
e 34 74
e 34 76
e 34 79
e 34 81
e 34 82
e 34 84
e 35 36
e 35 37
e 35 44
e 35 55
e 35 56
e 35 60
e 35 68
e 35 71
e 35 87
e 35 89
e 36 47
e 36 50
e 36 60
e 36 61
e 36 62
e 36 64
e 36 67
e 36 70
e 36 73
e 36 81
e 37 38
e 37 40
e 37 56
e 37 58
e 37 59
e 37 63
e 37 66
e 37 67
e 37 68
e 37 72
e 37 75
e 37 76
e 37 84
e 37 85
e 37 86
e 38 40
e 38 41
e 38 44
e 38 45
e 38 46
e 38 49
e 38 50
e 38 51
e 38 53
e 38 58
e 38 64
e 38 69
e 38 73
e 38 74
e 38 82
e 38 86
e 38 87
e 38 89
e 39 44
e 39 46
e 39 48
e 39 50
e 39 53
e 39 56
e 39 59
e 39 61
e 39 62
e 39 63
e 39 65
e 39 69
e 39 70
e 39 72
e 39 73
e 39 75
e 39 83
e 39 84
e 40 44
e 40 45
e 40 46
e 40 48
e 40 61
e 40 62
e 40 64
e 40 66
e 40 67
e 40 68
e 40 69
e 40 71
e 40 73
e 40 77
e 40 80
e 40 82
e 40 84
e 40 86
e 41 42
e 41 44
e 41 46
e 41 53
e 41 65
e 41 67
e 41 71
e 41 74
e 41 80
e 41 87
e 42 43
e 42 44
e 42 45
e 42 46
e 42 49
e 42 60
e 42 65
e 42 69
e 42 70
e 42 71
e 42 74
e 42 78
e 42 80
e 42 87
e 43 52
e 43 53
e 43 55
e 43 56
e 43 58
e 43 60
e 43 61
e 43 63
e 43 64
e 43 70
e 43 71
e 43 73
e 43 74
e 43 77
e 43 81
e 43 84
e 44 45
e 44 47
e 44 48
e 44 49
e 44 50
e 44 53
e 44 55
e 44 60
e 44 62
e 44 68
e 44 71
e 44 80
e 44 83
e 44 88
e 45 46
e 45 48
e 45 49
e 45 50
e 45 54
e 45 59
e 45 60
e 45 61
e 45 63
e 45 64
e 45 65
e 45 66
e 45 69
e 45 70
e 45 72
e 45 76
e 45 77
e 45 82
e 45 84
e 45 89
e 46 48
e 46 49
e 46 50
e 46 51
e 46 55
e 46 56
e 46 62
e 46 66
e 46 68
e 46 69
e 46 70
e 46 77
e 46 84
e 46 86
e 47 62
e 47 69
e 47 70
e 47 76
e 47 79
e 47 86
e 47 90
e 48 52
e 48 59
e 48 60
e 48 63
e 48 65
e 48 67
e 48 68
e 48 71
e 48 75
e 48 77
e 48 79
e 48 84
e 48 85
e 48 86
e 48 87
e 48 89
e 48 90
e 49 53
e 49 55
e 49 69
e 49 73
e 49 81
e 50 51
e 50 52
e 50 54
e 50 58
e 50 67
e 50 69
e 50 71
e 50 74
e 50 76
e 50 81
e 50 83
e 50 89
e 51 52
e 51 55
e 51 56
e 51 60
e 51 61
e 51 64
e 51 65
e 51 68
e 51 71
e 51 72
e 51 73
e 51 75
e 51 78
e 51 83
e 51 85
e 51 87
e 52 53
e 52 56
e 52 59
e 52 63
e 52 66
e 52 70
e 52 72
e 52 77
e 52 78
e 52 79
e 52 83
e 52 90
e 53 54
e 53 57
e 53 60
e 53 62
e 53 66
e 53 69
e 53 70
e 53 72
e 53 80
e 53 83
e 53 85
e 53 90
e 54 62
e 54 67
e 54 69
e 54 70
e 54 74
e 54 75
e 54 84
e 54 86
e 55 56
e 55 59
e 55 63
e 55 71
e 55 74
e 55 75
e 55 82
e 55 84
e 55 86
e 55 90
e 56 57
e 56 60
e 56 68
e 56 75
e 56 78
e 56 85
e 56 88
e 57 59
e 57 62
e 57 69
e 57 76
e 57 79
e 57 80
e 57 86
e 58 59
e 58 62
e 58 64
e 58 65
e 58 66
e 58 68
e 58 69
e 58 77
e 58 79
e 59 62
e 59 65
e 59 67
e 59 69
e 59 72
e 59 75
e 59 77
e 59 81
e 59 82
e 59 83
e 59 84
e 59 87
e 59 88
e 59 89
e 59 90
e 60 62
e 60 63
e 60 65
e 60 70
e 60 83
e 60 84
e 60 87
e 60 90
e 61 63
e 61 65
e 61 74
e 61 78
e 61 79
e 61 84
e 61 86
e 61 88
e 61 89
e 62 67
e 62 71
e 62 72
e 62 80
e 62 81
e 62 82
e 62 83
e 62 86
e 62 88
e 63 64
e 63 65
e 63 67
e 63 68
e 63 69
e 63 70
e 63 73
e 63 82
e 63 84
e 63 85
e 63 87
e 64 66
e 64 69
e 64 71
e 64 80
e 65 66
e 65 70
e 65 73
e 65 75
e 65 81
e 65 87
e 66 69
e 66 72
e 66 73
e 66 74
e 66 80
e 66 81
e 66 82
e 66 89
e 67 68
e 67 69
e 67 72
e 67 77
e 67 86
e 67 87
e 68 69
e 68 78
e 68 82
e 68 88
e 69 71
e 69 75
e 69 76
e 69 77
e 69 78
e 69 79
e 69 80
e 69 86
e 70 71
e 70 72
e 70 73
e 70 76
e 70 79
e 70 82
e 70 83
e 70 89
e 70 90
e 71 73
e 71 82
e 71 86
e 71 87
e 72 74
e 72 76
e 72 78
e 72 84
e 73 76
e 73 77
e 73 82
e 73 85
e 73 86
e 73 90
e 74 79
e 74 80
e 74 83
e 74 88
e 75 78
e 75 82
e 75 85
e 76 78
e 76 81
e 76 84
e 76 90
e 77 78
e 77 79
e 77 83
e 77 89
e 78 80
e 78 81
e 78 84
e 78 88
e 79 80
e 79 85
e 79 89
e 79 90
e 80 84
e 80 85
e 80 90
e 81 84
e 81 87
e 81 88
e 81 89
e 81 90
e 82 86
e 82 89
e 82 90
e 83 86
e 83 87
e 84 86
e 84 87
e 84 90
e 85 86
e 85 87
e 85 89
e 85 90
e 87 90
e 88 90